&control 
	calculation = 'vc-relax',
	prefix = 'na.9r',
/
&system
	ibrav = 0,
	celldm(1) = 17,
	nat = 3,
	ntyp = 1,
	ecutwfc = 40,
	ecutrho = 320,
	occupations = 'smearing',
	smearing = 'm-v',
	degauss = 0.02,
/
&electrons
	mixing_beta = 0.7,
	conv_thr = 1.0d-10,
/
&IONS
	ion_dynamics = 'bfgs',
/
&CELL
	cell_dynamics = 'bfgs',
	press = ,
	press_conv_thr = 0.05D0,
/
ATOMIC_SPECIES
 Na 22.99 Na_pbe_v1.uspp.F.UPF
ATOMIC_POSITIONS crystal
Na       0.722223402   0.722223402   0.722223402
Na       0.277776598   0.277776598   0.277776598
Na       0.500000000   0.500000000   0.500000000
CELL_PARAMETERS alat 
   0.385981303   0.675519316   0.675519316
   0.675519316   0.385981303   0.675519316
   0.675519316   0.675519316   0.385981303
K_POINTS automatic
 20 20 20 1 1 1
