&control 
	calculation = 'vc-relax',
	prefix = 'na.9r',
/
&system
	ibrav = -5,
	celldm(1) = 17,
	celldm(4) = 0.92,
	nat = 3,
	ntyp = 1,
	ecutwfc = 40,
	ecutrho = 320,
	occupations = 'smearing',
	smearing = 'm-v',
	degauss = 0.02,
/
&electrons
	mixing_beta = 0.7,
	conv_thr = 1.0d-10,
/
&IONS
	ion_dynamics = 'bfgs',
/
&CELL
	cell_dynamics = 'bfgs',
	press = -6,
	press_conv_thr = 0.05D0,
/
ATOMIC_SPECIES
 Na 22.99 Na_pbe_v1.uspp.F.UPF
ATOMIC_POSITIONS crystal
 Na 0.72223 0.72223 0.72223
 Na 0.27777 0.27777 0.27777
 Na 0.5 0.5 0.5
K_POINTS automatic
 20 20 20 1 1 1
