&input
	fildyn = 'na.bcc.dyn',
	zasr = 'simple',
	flfrc = 'na.bcc.fc',
/
