&input
	fildyn = 'na.fcc.dyn',
	zasr = 'simple',
	flfrc = 'na.fcc.fc',
/
