&input
	fildyn = 'na_hcp.dyn',
	flfrc = 'na_hcp.fc',
	zasr = 'simple',
/
