&control 
	calculation = 'scf',
	prefix = 'na.9r.1.5',
	tstress = .true.,
/
&system
	ibrav = 0,
	celldm(1) = 17,
	nat = 3,
	ntyp = 1,
	ecutwfc = 40,
	ecutrho = 320,
	occupations = 'smearing',
	smearing = 'm-v',
	degauss = 0.02,
/
&electrons
	mixing_beta = 0.7,
	conv_thr = 1.0d-10,
/
ATOMIC_SPECIES
 Na 22.99 Na_pbe_v1.uspp.F.UPF
CELL_PARAMETERS (alat= 17.00000)
   0.385321133   0.674285613   0.674285613
   0.674285613   0.385321133   0.674285613
   0.674285613   0.674285613   0.385321133
ATOMIC_POSITIONS (crystal)
Na       0.722219752   0.722219752   0.722219752
Na       0.277780248   0.277780248   0.277780248
Na       0.500000000   0.500000000   0.500000000
K_POINTS automatic
 20 20 20 1 1 1
