Na 9R Phonon Calculation
&inputph
	prefix = 'na.9r.0',
	tr2_ph = 1e-16,
	ldisp = .true.,
	nq1 = 4,
	nq2 = 4,
	nq3 = 4,
	fildyn = 'na.9r.0.dyn',
/
