&control
	calculation = 'scf',
	prefix = 'na.9r.0',
	tstress = .true.,
        outdir = './tmp/'
        pseudo_dir = './'
/
&system
	ibrav = 0,
	celldm(1) = 17,
	nat = 3,
	ntyp = 1,
	ecutwfc = 40,
	ecutrho = 320,
	occupations = 'smearing',
	smearing = 'm-v',
	degauss = 0.02,
/
&electrons
	mixing_beta = 0.7,
	conv_thr = 1.0d-10,
/
ATOMIC_SPECIES
 Na 22.99 Na_pbe_v1.uspp.F.UPF
CELL_PARAMETERS (alat= 17.00000)
   0.387810316   0.678487001   0.678487001
   0.678487001   0.387810316   0.678487001
   0.678487001   0.678487001   0.387810316
ATOMIC_POSITIONS (crystal)
Na       0.722222522   0.722222522   0.722222522
Na       0.277777478   0.277777478   0.277777478
Na       0.500000000   0.500000000   0.500000000
K_POINTS automatic
 20 20 20 1 1 1
