Na 9R Phonon Calculation
&inputph
        recover = .true.
	prefix = 'na.9r.0',
        reduce_io = .true.
	tr2_ph = 1e-16,
	ldisp = .true.,
        outdir = './tmp/'
	nq1 = 4,
	nq2 = 4,
	nq3 = 4,
	start_q = 5,
	last_q = 5,
	fildyn = 'na.9r.dyn',
	max_seconds = 10500
/
