&input
	fildyn = 'aluminium.dyn',
	zasr = 'simple',
	flfrc = 'aluminium.444.fc',
/
