Phonon Calculation for Aluminium
 &inputph
	prefix = 'aluminium',
	ldisp = .true.,
	nq1 = 4,
	nq2 = 4,
	nq3 = 4,
	fildyn = 'aluminium.dyn',
/
