&input
	fildyn = 'aluminium.dyn',
	zasr = 'simple',
	flfrc = 'aluminium.121212.fc',
/
