&control
	calculation = 'scf',
	tstress = .true.,
	tprnfor = .true.,
	prefix = 'aluminium',
/
&system
	ibrav = 2,
	celldm(1) = 7.6456,
	nat = 1,
	ntyp = 1,
	ecutwfc = 30,
	occupations = 'smearing',
	degauss = 0.05,
/
&electrons
	mixing_beta = 0.7,
	conv_thr = 1.0d-8,
/
ATOMIC_SPECIES
	Al 26.982	Al.pbe-n-kjpaw_psl.1.0.0.UPF
    ATOMIC_POSITIONS
     Al 0.00 0.00 0.00
    K_POINTS automatic
     12 12 12   1 1 1
