Phonon Calculation for Silicon
 &inputph
	prefix = 'silicon',
	ldisp = .true.,
	nq1 = 4,
	nq2 = 4,
	nq3 = 4,
	fildyn = 'silicon.dyn',
 /
