&control
	calculation = 'scf',
	tstress = .true.,
	tprnfor = .true.,
	prefix = 'silicon',
/
&system
	ibrav = 2,
	celldm(1) = 10.34,
	nat = 2,
	ntyp = 1,
	ecutwfc = 18.0,
/
&electrons
	mixing_beta = 0.7,
	conv_thr = 1.0d-8
/
ATOMIC_SPECIES
 Si	28.086	Si.pbe-n-otfg.UPF
ATOMIC_POSITIONS
 Si 0.00 0.00 0.00
 Si 0.25 0.25 0.25
K_POINTS automatic
 4 4 4   1 1 1
