&input
	fildyn = 'silicon.dyn',
	zasr = 'simple',
	flfrc = 'silicon.444.fc',
/
