Na HCP Phonon Calculation
&inputph
  prefix='na_hcp_6.998233353524401',
  outdir='./na_hcp_6.998233353524401/',
  fildyn='na_hcp_6.998233353524401.dyn',

! Convergence settings:
  tr2_ph=1e-15,

! Set up regular q-grid for DFPT:
  ldisp=.true.,
  nq1=4, nq2=4, nq3=4
 /