silicon diamond phonons
 &inputph
 	prefix = 'silicon.10.400',
	outdir = './silicon/',
	ldisp=.true.,
	tr2_ph=1.0d-16,
	ldisp = .true.,
	nq1=6,
	nq2=6,
	nq3=6,
	start_q = 15,
	last_q = 16,
	fildyn = 'silicon.10.400.dyn',
/
