 &control
    calculation = 'scf'
    tstress = .true.
    tprnfor = .true.
    pseudo_dir = './',
    outdir='./silicon/'
    prefix='silicon.10.304'
 /
 &system
! Edit crystal structure information
    ibrav = 2,
    celldm(1) = 10.304,
    nat= 2,
    ntyp= 1
! Edit plane wave cutoff if necessary
    ecutwfc = 30.0,
    ecutrho = 240,
 /
 &electrons
    mixing_beta = 0.7,
    conv_thr =  1.0d-10,
 /
ATOMIC_SPECIES
Si 28.086 si_pbe_v1.uspp.F.UPF.txt
ATOMIC_POSITIONS 
Si 0.00 0.00 0.00 
Si 0.25 0.25 0.25
K_POINTS automatic ! edit k-grid below if necessary
12 12 12 1 1 1
